6232271433240093847509,3,1,2,08,3,1,2,012,7,1,2,01,13,1,2,05,1,1,2,08,2,1,2,07,9,1,2,06,11,1,2,08,4,1,2,013,5,1,2,06,7,1,2,05,10,1,2,09,15,1,2,08,6,1,2,02,15,1,2,015,10,1,2,014,4,1,2,09,6,1,2,07,3,1,2,02,6,1,2,07,12,1,2,013,7,1,2,010,12,1,2,011,9,1,2,014,3,1,2,03,4,1,2,01,3,1,2,09,5,1,2,010,14,1,2,010,8,1,2,03,6,1,2,08,7,1,2,015,12,1,2,012,13,1,2,014,13,1,2,011,10,1,2,09,11,1,2,04,3,1,2,015,4,1,2,07,4,1,2,013,2,1,2,013,15,1,2,012,6,1,2,03,3,1,2,01,9,1,2,04,2,1,2,01,6,1,2,010,12,1,2,05,5,1,2,011,14,1,2,0